
  22    4
  10   10   10   10

   0   0   0   0   0   8 2 4 5 6 7 9 11 15 
   8  10  10  10  10   2 21 3 
   3  10  10  10  10   4 20 19 13 8 
   3  10  10  10  10   6 21 20 19 18 17 12 
   9  10  10  10  10   5 21 19 18 16 10 
   7  10  10  10  10   3 19 17 8 
   1  10  10  10  10   4 19 18 17 12 
   3  10  10  10  10   2 18 12 
   7  10  10  10  10   2 21 14 
   4  10  10  10  10   2 20 17 
   1  10  10  10  10   2 19 18 
   3  10  10  10  10   1 16 
   5  10  10  10  10   1 17 
   7  10  10  10  10   1 16 
   7  10  10  10  10   1 17 
   9  10  10  10  10   1 22
   6  10  10  10  10   1 22
   8  10  10  10  10   1 22
   7  10  10  10  10   1 22
   3  10  10  10  10   1 22
   4  10  10  10  10   1 22
   0   0   0   0   0   0 
